
Log started (V11.0.0) Thu May 15 00:50:51 2008

Tried aggregator 1 time.
Reduced MIP has 150 rows, 5001 columns, and 10050 nonzeros.
Presolve time =    0.03 sec.
Clique table members: 100.
MIP emphasis: balance optimality and feasibility.
MIP search method: dynamic search.
Parallel mode: none, using 1 thread.
Root relaxation solution time =    0.22 sec.

        Nodes                                         Cuts/
   Node  Left     Objective  IInf  Best Integer     Best Node    ItCnt     Gap

*     0+    0                        11065.0000      200.3391      539   98.19%
*     0+    0                          202.0000      200.3391      539    0.82%
      0     0      201.0000    73      202.0000      Fract: 5      546    0.50%
      0     0      201.0000    79      202.0000   Flowcuts: 2      555    0.50%
      0     2      201.0000    79      202.0000      201.0000      555    0.50%
    100    14      201.0000    62      202.0000      201.0000    25140    0.50%
    200    16    infeasible            202.0000      201.0000    65196    0.50%
    300    20      201.0000    52      202.0000      201.0000   103382    0.50%
    400    22    infeasible            202.0000      201.0000   143141    0.50%
    500    50      201.0000    56      202.0000      201.0000   162927    0.50%

Flow cuts applied:  2

Solution pool: 2 solutions saved.

MIP - Integer optimal solution:  Objective = 2.0200000000e+002
Solution time =   24.67 sec.  Iterations = 170922  Nodes = 531


Incumbent solution
Variable Name           Solution Value
Cmax                        202.000000
X_1_44                        1.000000
X_2_1                         1.000000
X_3_6                         1.000000
X_4_40                        1.000000
X_5_47                        1.000000
X_6_41                        1.000000
X_7_31                        1.000000
X_8_34                        1.000000
X_9_46                        1.000000
X_10_24                       1.000000
X_11_5                        1.000000
X_12_42                       1.000000
X_13_17                       1.000000
X_14_48                       1.000000
X_15_8                        1.000000
X_16_21                       1.000000
X_17_19                       1.000000
X_18_14                       1.000000
X_19_34                       1.000000
X_20_15                       1.000000
X_21_29                       1.000000
X_22_20                       1.000000
X_23_24                       1.000000
X_24_29                       1.000000
X_25_25                       1.000000
X_26_48                       1.000000
X_27_32                       1.000000
X_28_2                        1.000000
X_29_43                       1.000000
X_30_40                       1.000000
X_31_8                        1.000000
X_32_7                        1.000000
X_33_38                       1.000000
X_34_30                       1.000000
X_35_9                        1.000000
X_36_35                       1.000000
X_37_25                       1.000000
X_38_45                       1.000000
X_39_23                       1.000000
X_40_19                       1.000000
X_41_7                        1.000000
X_42_47                       1.000000
X_43_1                        1.000000
X_44_23                       1.000000
X_45_16                       1.000000
X_46_26                       1.000000
X_47_44                       1.000000
X_48_6                        1.000000
X_49_18                       1.000000
X_50_12                       1.000000
X_51_3                        1.000000
X_52_11                       1.000000
X_53_38                       1.000000
X_54_3                        1.000000
X_55_27                       1.000000
X_56_18                       1.000000
X_57_37                       1.000000
X_58_42                       1.000000
X_59_2                        1.000000
X_60_4                        1.000000
X_61_32                       1.000000
X_62_5                        1.000000
X_63_10                       1.000000
X_64_12                       1.000000
X_65_15                       1.000000
X_66_39                       1.000000
X_67_33                       1.000000
X_68_17                       1.000000
X_69_9                        1.000000
X_70_30                       1.000000
X_71_46                       1.000000
X_72_22                       1.000000
X_73_20                       1.000000
X_74_10                       1.000000
X_75_49                       1.000000
X_76_49                       1.000000
X_77_21                       1.000000
X_78_27                       1.000000
X_79_14                       1.000000
X_80_36                       1.000000
X_81_41                       1.000000
X_82_11                       1.000000
X_83_13                       1.000000
X_84_35                       1.000000
X_85_4                        1.000000
X_86_28                       1.000000
X_87_45                       1.000000
X_88_39                       1.000000
X_89_50                       1.000000
X_90_31                       1.000000
X_91_43                       1.000000
X_92_13                       1.000000
X_93_50                       1.000000
X_94_36                       1.000000
X_95_16                       1.000000
X_96_37                       1.000000
X_97_26                       1.000000
X_98_33                       1.000000
X_99_22                       1.000000
X_100_28                      1.000000
All other variables in the range 1-5001 are 0.
